LengthInt := 60;
Difficulty := 60;
Length := 0.25e-6 * LengthInt;
Nx := 500;
Ny := 32;
Nz := 8;
sizeX := Length + 16e-6;
sizeY := 5e-6;
sizeZ := 20e-6;
SetGridSize(Nx, Ny, Nz);
SetCellSize(sizeX/Nx, sizeY/Ny, sizeZ/Nz);
strip := cuboid(Length, 1e-6, sizeZ);
setgeom(strip);
DefRegion(1, strip);
Msat = 2.78e4;
m = uniform(0, 1, 0);
alpha = 0.002;
B_ext = vector(0, 2100e-4, 0);
relax();
saveas(CropY(CropZ(B_eff, Nz/2, Nz/2+1), Ny/2, Ny/2+1), "H_eff");
saveas(CropY(CropZ(B_demag, Nz/2, Nz/2+1), Ny/2, Ny/2+1), "H_demag");
saveas(CropY(CropZ(B_ext, Nz/2, Nz/2+1), Ny/2, Ny/2+1), "H_ext");
